100
25 51
35 7
93 75
53 95
51 81
51 55
1 67
9 23
75 7
15 97
79 5
9 19
39 1
47 1
33 97
27 83
83 79
17 59
47 19
57 9
87 41
55 25
21 91
21 13
67 1
59 21
1 75
33 85
25 21
45 29
63 77
1 77
77 41
35 11
9 77
61 87
59 91
63 79
97 67
9 45
93 21
83 71
95 57
31 69
77 17
63 57
3 63
11 69
7 9
37 65
75 83
15 53
69 5
69 27
5 19
49 31
77 17
15 7
91 39
79 17
67 75
93 51
25 33
9 19
3 65
DEMAND_SECTION Best value: 1177
0 
12 
24 
16 
7 
9 
20 
10 
18 
26 
17 
2 
11 
9 
12 
11 
12 
23 
7 
1 
26 
10 
9 
22 
21 
17 
2 
15 
16 
14 
23 
24 
2 
12 
18 
5 
19 
15 
8 
6 
14 
13 
5 
24 
25 
2 
8 
14 
2 
13 
10 
6 
6 
24 
21 
20 
24 
4 
19 
14 
23 
2 
16 
23 
14 